
Gurobi 12.0.3 (linux64) logging started Fri Mar 27 01:00:33 2026

Set parameter LogFile to value "/home/solar-wind/WT_Solar_results_bigM100000_thread4/case24_ieee_rts_theta0.12_epsilon0.08_gurobi_seed0_num_gen38_N_WDR250_load_scaling_factor1_EIFICA_T24_num_Solar5_num_WT10.txt"
Gurobi Optimizer version 12.0.3 build v12.0.3rc0 (linux64 - "Ubuntu 22.04.5 LTS")

CPU model: Intel(R) Xeon(R) Platinum 8378A CPU @ 3.00GHz, instruction set [SSE2|AVX|AVX2|AVX512]
Thread count: 32 physical cores, 64 logical processors, using up to 4 threads

Non-default parameters:
TimeLimit  14400
MIPGap  0.001
Threads  4

Academic license 2721591 - for non-commercial use only - registered to fa___@mails.neu.edu.cn
Optimize a model with 715588 rows, 2075 columns and 63102568 nonzeros
Model fingerprint: 0x335bee33
Model has 912 quadratic objective terms
Coefficient statistics:
  Matrix range     [3e-07, 7e+01]
  Objective range  [2e+01, 6e+01]
  QObjective range [4e-03, 2e-02]
  Bounds range     [0e+00, 0e+00]
  RHS range        [5e-02, 1e+03]
Presolve removed 526055 rows and 0 columns (presolve time = 5s)...
Presolve removed 526929 rows and 0 columns
Presolve time: 6.45s
Presolved: 188659 rows, 2949 columns, 4310664 nonzeros
Presolved model has 912 quadratic objective terms
Elapsed ordering time = 16s
Ordering time: 30.40s
Elapsed ordering time = 31s
Elapsed ordering time = 36s
Elapsed ordering time = 42s
Elapsed ordering time = 47s
Elapsed ordering time = 50s
Elapsed ordering time = 53s
Elapsed ordering time = 55s
Elapsed ordering time = 59s
Elapsed ordering time = 60s
Ordering time: 64.52s

Barrier statistics:
 Dense cols : 1089
 AA' NZ     : 2.201e+08
 Factor NZ  : 1.088e+09 (roughly 9.0 GB of memory)
 Factor Ops : 1.992e+13 (roughly 110 seconds per iteration)
 Threads    : 4

                  Objective                Residual
Iter       Primal          Dual         Primal    Dual     Compl     Time
   0   5.46508917e+08 -2.65300550e+08  3.65e+04 9.99e+02  9.92e+05   170s
   1   5.12841637e+08 -2.44253660e+08  3.50e+04 9.56e+02  9.50e+05   170s
   2   5.06352759e+08 -3.14764249e+08  3.46e+04 9.47e+02  9.45e+05   170s
   3   4.58112508e+08 -3.71346679e+08  3.24e+04 8.81e+02  9.02e+05   170s
   4   4.05547429e+08 -4.58096045e+08  2.98e+04 8.05e+02  8.74e+05   171s
   5   3.62580379e+08 -4.62188918e+08  2.77e+04 7.41e+02  8.06e+05   171s
   6   3.25028620e+08 -4.74307394e+08  2.57e+04 6.83e+02  7.43e+05   171s
   7   2.84080795e+08 -4.90676518e+08  2.32e+04 6.17e+02  6.73e+05   171s
   8   2.50637870e+08 -5.08585780e+08  2.11e+04 5.61e+02  6.13e+05   171s
   9   2.21384309e+08 -5.31026413e+08  1.93e+04 5.09e+02  5.57e+05   171s
  10   1.92131437e+08 -5.54735250e+08  1.73e+04 4.54e+02  4.99e+05   172s
  11   1.61907742e+08 -5.74046320e+08  1.51e+04 3.94e+02  4.34e+05   172s
  12   1.39931193e+08 -5.92533664e+08  1.35e+04 3.48e+02  3.85e+05   172s
  13   1.21777797e+08 -6.09469095e+08  1.22e+04 3.08e+02  3.42e+05   172s
  14   1.08611012e+08 -6.29100929e+08  1.11e+04 2.79e+02  3.10e+05   172s
  15   9.60625382e+07 -6.49646798e+08  1.01e+04 2.50e+02  2.79e+05   172s
  16   8.39290144e+07 -6.70986195e+08  9.02e+03 2.22e+02  2.48e+05   172s
  17   7.17999486e+07 -6.92935040e+08  7.94e+03 1.93e+02  2.16e+05   173s
  18   6.03881130e+07 -7.17066501e+08  6.83e+03 1.65e+02  1.86e+05   173s
  19   5.04615615e+07 -7.37631182e+08  5.83e+03 1.40e+02  1.58e+05   173s
  20   4.09635685e+07 -7.54824815e+08  4.85e+03 1.15e+02  1.31e+05   173s
  21   3.29207571e+07 -7.67249953e+08  3.99e+03 9.38e+01  1.08e+05   173s
  22   2.60079467e+07 -7.73970650e+08  3.57e+03 7.48e+01  8.65e+04   173s
  23   8.37092684e+06 -7.64423973e+08  3.09e+03 2.42e+01  3.79e+04   173s
  24   7.53184060e+06 -7.42615603e+08  2.78e+03 2.16e+01  3.39e+04   173s
  25   6.81373538e+06 -7.20356526e+08  2.50e+03 1.94e+01  3.04e+04   174s
  26   5.54002121e+06 -6.75571051e+08  2.01e+03 1.54e+01  2.44e+04   174s
  27   4.62113475e+06 -6.32592291e+08  1.64e+03 1.26e+01  2.01e+04   174s
  28   3.69838134e+06 -5.84969773e+08  1.35e+03 9.74e+00  1.57e+04   174s
  29   3.02054478e+06 -5.36686333e+08  1.09e+03 7.66e+00  1.25e+04   174s
  30   2.41565654e+06 -4.81505246e+08  8.30e+02 5.80e+00  9.57e+03   174s
  31   2.06712783e+06 -4.59641701e+08  6.60e+02 4.67e+00  8.16e+03   174s
  32   1.68384521e+06 -4.04885672e+08  4.85e+02 3.42e+00  6.09e+03   175s
  33   1.37486187e+06 -4.01439507e+08  3.16e+02 2.36e+00  4.93e+03   175s
  34   1.13377465e+06 -3.45741170e+08  1.96e+02 1.52e+00  3.48e+03   175s
  35   1.04188969e+06 -3.00441554e+08  1.51e+02 1.17e+00  2.73e+03   175s
  36   9.34450335e+05 -2.50288414e+08  1.00e+02 7.69e-01  1.98e+03   175s
  37   8.56723009e+05 -2.02480679e+08  6.12e+01 4.62e-01  1.40e+03   176s
  38   8.34463773e+05 -1.90127207e+08  4.62e+01 3.51e-01  1.25e+03   176s
  39   8.19127420e+05 -1.63773982e+08  3.53e+01 2.68e-01  1.03e+03   177s
  40   8.08053912e+05 -1.40457710e+08  2.63e+01 1.98e-01  8.51e+02   177s
  41   8.01887996e+05 -1.28290351e+08  1.81e+01 1.37e-01  7.50e+02   178s
  42   8.01145899e+05 -1.22257662e+08  1.66e+01 1.26e-01  7.10e+02   179s
  43   8.00055065e+05 -1.11944192e+08  1.41e+01 1.07e-01  6.44e+02   180s
  44   7.99464601e+05 -1.01315269e+08  1.01e+01 7.70e-02  5.78e+02   181s
  45   7.99097890e+05 -8.56005595e+07  7.93e+00 6.03e-02  4.87e+02   184s
  46   7.98553231e+05 -5.87828966e+07  4.45e+00 3.37e-02  3.23e+02   185s
  47   7.97695050e+05 -2.88866471e+07  3.48e+00 1.44e-02  1.57e+02   186s
  48   7.97032601e+05 -1.39385030e+07  1.74e+00 5.76e-03  7.72e+01   189s
  49   7.94686069e+05 -3.51821259e+06  8.03e-01 1.23e-03  2.25e+01   194s
  50   7.85168173e+05  2.80551613e+05  1.34e-04 6.30e-04  2.62e+00   257s
  51   7.42600857e+05  5.28287308e+05  2.48e-05 1.14e-04  1.11e+00   313s
  52   7.29031785e+05  6.32200478e+05  6.30e-05 1.42e-03  5.03e-01   423s
  53   7.24481355e+05  6.78814762e+05  9.84e-06 6.43e-05  2.37e-01   685s
  54   7.20632365e+05  7.02231897e+05  1.02e-08 6.69e-08  9.56e-02   766s
  55   7.19080728e+05  7.10895293e+05  1.89e-09 1.23e-08  4.25e-02   848s
  56   7.18446836e+05  7.14192642e+05  2.23e-10 1.42e-09  2.21e-02   931s
  57   7.18120581e+05  7.15826886e+05  4.09e-10 8.58e-12  1.19e-02  1012s
  58   7.17876794e+05  7.17026290e+05  1.88e-10 1.27e-11  4.42e-03  1092s
  59   7.17780896e+05  7.17506097e+05  5.79e-10 1.19e-11  1.43e-03  1177s
  60   7.17746086e+05  7.17676456e+05  3.89e-10 2.40e-11  3.62e-04  1264s
  61   7.17742290e+05  7.17694076e+05  5.23e-10 2.27e-11  2.50e-04  1341s
  62   7.17734310e+05  7.17733266e+05  2.34e-09 1.80e-11  5.42e-06  1423s
  63   7.17734130e+05  7.17734077e+05  5.02e-09 5.90e-11  2.72e-07  1502s
  64   7.17734121e+05  7.17734120e+05  1.06e-08 3.32e-10  1.12e-09  1601s

Barrier solved model in 64 iterations and 1600.57 seconds (1683.48 work units)
Optimal objective 7.17734121e+05

